30
7
5
1
36 30
100 45
130 50
40 130
70 110
135 100
36 30
100 45
130 50
40 130
70 110
135 100
44 125
61 113
87 43
112 97
149 97
128 31
137 102
110 100
145 50
67 30
91 146
138 47
27 130
88 44
56 133
57 112
109 47
77 114
90 143
18 145
50 129
57 110
55 66
87 45
75 88
114 44
45 126
57 130
160 100
82 104
